c --- [ banner ] -------------------------------------------------------------
c 
c CaDiCaL SAT Solver
c Copyright (c) 2016-2023 A. Biere, M. Fleury, N. Froleyks, K. Fazekas, F. Pollitt
c 
c Version 1.9.5
c g++ (Ubuntu 11.4.0-1ubuntu1~22.04) 11.4.0 -Wall -Wextra -O3 -DNDEBUG -static
c Thu Mar 7 06:16:21 CET 2024 Linux pc101447 6.5.0-17-generic x86_64
c 
c --- [ limit ] --------------------------------------------------------------
c 
c setting time limit to 3600 seconds real time (due to '-t 3600')
c 
c --- [ parsing input ] ------------------------------------------------------
c 
c reading DIMACS file from '/home/oliveras/SAT-comp-2023//fd1fbc1b090c14746a883b3a17259743-9vliw_bp_mc.shuffled.cnf'
c opening file to read '/home/oliveras/SAT-comp-2023//fd1fbc1b090c14746a883b3a17259743-9vliw_bp_mc.shuffled.cnf'
c found 'p cnf 20093 179492' header
c parsed 179492 clauses in 0.13 seconds process time
c 
c --- [ options ] ------------------------------------------------------------
c 
c   --seed=1                       (different from default '0')
c 
c --- [ solving ] ------------------------------------------------------------
c 
c time measured in process time since initialization
c 
c  seconds  reductions  redundant  irredundant
c         MB    restarts       trail       variables
c          level   conflicts       glue         remaining
c 
c *  0.13 22  0 0   0    0    0  0% 0 179481 19144 95%
c {  0.14 23  0 0   0    0    0  0% 0 179481 19144 95%
c i  0.16 23 249 0  11   75   60 50% 5 179481 19143 95%
c -  0.22 24 212 1  37  300  238 49% 8 179449 19143 95%
c }  0.28 25 105 1  86 1000  723 42% 9 179449 19143 95%
c [  0.28 25  0 1  86 1000  723  0% 0 179449 19143 95%
c O  0.28 25 255 1  86 1002  725 52% 2 179449 19143 95%
c -  0.33 33 176 2  86 1052  716 57% 5 179449 19143 95%
c -  0.45 33 247 3  87 2181 1491 63% 10 179449 19143 95%
c ]  0.53 33 188 3  87 3001 2128 55% 13 179449 19143 95%
c {  0.53 33 105 3  87 3001 2128 42% 9 179449 19143 95%
c F  0.53 33 106 3  88 3004 2130 43% 9 179449 19143 95%
c -  0.60 33 126 4 113 3685 1942 46% 8 179449 19143 95%
c i  0.66 33 139 4 199 4279 2362 46% 9 179449 18209 91%
c i  0.68 33 133 4 219 4470 2515 46% 9 179449 18204 91%
c d  0.74 34 126 4 332 5000 2651 45% 10 168612 18201 91%
c d  0.75 34 126 4 332 5000 2635 45% 10 167511 17649 88%
c 2  0.80 33 126 4 332 5000 4147 45% 10 167496 17646 88%
c p  0.93 33 126 4 332 5000 26425 45% 10 167496 17632 88%
c d  0.95 33 126 4 332 5000 26397 45% 10 166695 17611 88%
c 
c  seconds   reductions  redundant   irredundant
c         MB     restarts       trail        variables
c           level   conflicts       glue          remaining
c 
c -  1.04 31 129 5 362 5566 2722 50% 10 166695 17611 88%
c #  1.06 31 123 5 363 6005 3098 50% 10 166695 17611 88%
c s  1.13 39 118 5 459 6458 3244 49% 11 166187 17611 88%
c v  1.18 39 118 5 459 6458 3244 49% 11 166181 17611 88%
c w  1.19 39 118 5 459 6458 3244 49% 11 166181 17611 88%
c t  1.21 39 118 5 459 6458 3244 49% 11 166154 17611 88%
c e  1.44 39 118 5 459 6458 2171 49% 11 154098 11309 56%
c s  1.50 42 118 5 459 6458 2103 49% 11 151516 11309 56%
c e  1.61 42 118 5 459 6458 2085 49% 11 150984 11159 56%
c }  1.65 42 135 5 495 7001 2435 46% 11 150984 11159 56%
c [  1.65 42 188 5 495 7001 2435 63% 13 150984 11159 56%
c -  1.72 42 377 6 496 7765 2519 60% 15 150984 11159 56%
c I  1.84 43 272 6 497 10006 4179 64% 24 150984 11159 56%
c -  1.87 43 267 7 497 10241 3469 78% 23 150984 11159 56%
c -  1.99 43 190 8 499 13071 3983 65% 20 150984 11159 56%
c d  2.07 43 155 8 500 15000 5442 62% 20 150983 11157 56%
c 3  2.09 43 155 8 500 15000 10120 62% 20 150983 11157 56%
c 2  2.12 43 155 8 500 15000 10242 62% 20 150967 11157 56%
c p  2.25 43 155 8 500 15000 36112 62% 20 150967 11136 55%
c d  2.26 43 155 8 500 15000 36028 62% 20 150525 11130 55%
c 
c  seconds   reductions    redundant   irredundant
c         MB     restarts         trail        variables
c           level    conflicts        glue          remaining
c 
c ]  2.27 43 155 8 500 15001 36029 62% 20 150525 11130 55%
c {  2.27 43 135 8 500 15001 36029 72% 11 150525 11130 55%
c B  2.28 43 135 8 500 15010 36038 72% 11 150525 11130 55%
c -  2.35 43 133 9 652 16255 4752 66% 11 150525 11130 55%
c -  2.50 43 122 10 979 19787 4371 61% 11 150525 11130 55%
c W  2.57 43 119 10 1028 21011 5183 61% 11 150525 11130 55%
c s  2.64 43 123 10 1034 21491 5363 61% 11 149865 11130 55%
c v  2.68 43 123 10 1034 21491 5363 61% 11 149862 11130 55%
c t  2.72 43 123 10 1034 21491 5363 61% 11 149287 11130 55%
c e  2.79 43 123 10 1034 21491 5348 61% 11 149031 11069 55%
c s  2.84 43 123 10 1034 21491 5304 61% 11 148834 11069 55%
c e  2.88 43 123 10 1034 21491 5281 61% 11 148804 11059 55%
c -  2.99 43 119 11 1174 23673 5123 60% 11 148804 11059 55%
c -  3.16 43 107 12 1294 27897 6304 59% 11 148804 11059 55%
c F  3.17 43 107 12 1299 28013 6409 59% 11 148804 11059 55%
c d  3.26 43 101 12 1365 30000 7803 58% 11 148804 11056 55%
c 3  3.29 43 101 12 1365 30000 10213 58% 11 148804 11056 55%
c 2  3.32 43 101 12 1365 30000 10204 58% 11 148782 11056 55%
c p  3.43 43 101 12 1365 30000 28993 58% 11 148782 10965 55%
c d  3.44 43 101 12 1365 30000 28416 58% 11 147072 10963 55%
c 
c  seconds  reductions      redundant   irredundant
c         MB     restarts          trail        variables
c          level      conflicts        glue          remaining
c 
c }  3.49 43 99 12 1366 31002 29121 58% 11 147072 10963 55%
c [  3.49 43 155 12 1366 31002 29121 62% 20 147072 10963 55%
c -  3.58 43 138 13 1366 32470 7701 59% 19 147072 10963 55%
c i  3.63 43 131 13 1366 33326 8215 59% 18 147072 10252 51%
c B  3.73 43 122 13 1369 36018 10099 56% 16 147072 10252 51%
c -  3.80 43 129 14 1369 37375 4695 58% 16 133694 10252 51%
c -  4.03 43 115 15 1373 42447 6585 58% 17 133694 10252 51%
c s  4.15 43 110 15 1373 43993 7257 58% 17 133153 10252 51%
c v  4.19 43 110 15 1373 43993 7257 58% 17 133148 10252 51%
c t  4.23 43 110 15 1373 43993 7252 58% 17 131967 10252 51%
c e  4.32 43 110 15 1373 43993 7138 58% 17 130564 9894 49%
c s  4.36 43 110 15 1373 43993 7050 58% 17 129958 9894 49%
c e  4.41 43 110 15 1373 43993 7023 58% 17 128129 9648 48%
c W  4.55 43 109 15 1373 45020 7801 52% 17 128129 9648 48%
c -  4.65 43 100 16 1374 47852 7308 49% 18 128129 9648 48%
c d  4.73 44 94 16 1374 50001 8854 49% 19 127958 9631 48%
c 2  4.77 44 94 16 1374 50001 10387 49% 19 126419 9628 48%
c p  4.88 44 94 16 1374 50001 22571 49% 19 126419 9487 47%
c d  4.89 44 94 16 1374 50001 20701 49% 19 123745 9473 47%
c -  5.05 44 87 17 1374 53503 8219 50% 19 123745 9473 47%
c 
c  seconds  reductions     redundant   irredundant
c         MB     restarts         trail       variables
c          level      conflicts       glue         remaining
c 
c O  5.11 44 85 17 1375 55021 9260 50% 19 123745 9473 47%
c -  5.31 44 81 18 1378 59402 8524 50% 19 123745 9473 47%
c ]  5.44 44 75 18 1380 63003 11136 50% 19 123745 9473 47%
c {  5.44 44 99 18 1380 63003 11136 67% 11 123745 9473 47%
c -  5.56 44 93 19 1750 65661 8504 65% 11 123745 9473 47%
c B  5.57 44 92 19 1757 66022 8792 65% 11 123745 9473 47%
c i  5.75 44 87 19 1964 71225 12198 62% 10 123745 9459 47%
c i  5.76 44 87 19 1964 71431 12325 61% 10 123745 9458 47%
c i  5.76 44 87 19 1964 71436 12328 61% 10 123745 9457 47%
c i  5.76 44 87 19 1964 71437 12328 61% 10 123745 9456 47%
c -  5.81 44 87 20 2044 72216 3112 61% 10 121451 9456 47%
c i  5.85 44 88 20 2106 73093 3749 60% 10 121451 9455 47%
c i  5.85 44 88 20 2106 73095 3750 60% 10 121451 9454 47%
c s  5.92 44 87 20 2147 73843 4110 60% 10 120378 9454 47%
c v  5.96 44 87 20 2147 73843 4110 60% 10 120372 9454 47%
c w  5.97 44 87 20 2147 73843 4104 60% 10 120372 9454 47%
c t  5.99 44 87 20 2147 73843 4103 60% 10 120177 9454 47%
c e  6.06 44 87 20 2147 73843 3950 60% 10 117909 9093 45%
c s  6.09 44 87 20 2147 73843 3891 60% 10 117408 9093 45%
c e  6.13 44 87 20 2147 73843 3822 60% 10 117179 9047 45%
c 
c  seconds  reductions     redundant   irredundant
c         MB     restarts         trail       variables
c          level      conflicts       glue         remaining
c 
c d  6.20 44 88 20 2297 75006 4554 59% 10 117123 9026 45%
c 2  6.23 44 88 20 2297 75006 6945 59% 10 116946 9017 45%
c p  6.35 44 88 20 2297 75006 15838 59% 10 116946 8853 44%
c d  6.36 44 88 20 2297 75006 14448 59% 10 114463 8825 44%
c d  6.37 44 88 20 2297 75006 14448 59% 10 114456 8824 44%
c W  6.60 44 88 20 2514 78023 16268 59% 10 114456 8824 44%
c -  6.64 44 88 21 2557 79056 6887 58% 10 114456 8824 44%
c -  6.84 44 82 22 2827 86043 9094 57% 10 114456 8824 44%
c i  6.88 44 81 22 2852 87197 9796 57% 10 114456 8118 40%
c i  6.90 44 81 22 2852 87218 2533 37% 10 98358 8109 40%
c i  6.93 44 82 22 2949 87975 3060 41% 10 98358 8107 40%
c i  6.93 44 82 22 2960 88019 3076 39% 10 98358 8106 40%
c i  6.95 44 82 22 3063 88686 3407 34% 10 98358 8097 40%
c i  6.95 44 82 22 3063 88691 3410 34% 10 98358 8088 40%
c i  6.97 44 82 22 3140 89321 3807 34% 10 98358 8085 40%
c i  6.99 44 82 22 3172 89869 4170 36% 10 98358 8067 40%
c #  7.03 44 83 22 3288 91030 4934 37% 10 98358 8067 40%
c -  7.11 44 86 23 3420 93347 6110 41% 10 97671 8067 40%
c i  7.18 44 87 23 3582 95575 7747 42% 10 97671 8041 40%
c i  7.18 44 87 23 3585 95586 7756 42% 10 97671 7977 40%
c 
c  seconds  reductions     redundant   irredundant
c         MB     restarts         trail      variables
c          level      conflicts       glue        remaining
c 
c i  7.21 44 88 23 3655 96306 8277 41% 10 97671 7976 40%
c i  7.29 44 88 23 3799 98619 9821 42% 10 97671 7893 39%
c i  7.30 44 88 23 3812 98742 9911 42% 10 97671 7891 39%
c -  7.37 44 88 24 4018 100547 8686 42% 10 94083 7876 39%
c d  7.53 44 90 24 4329 105006 11595 43% 10 93685 7630 38%
c 2  7.56 44 90 24 4329 105006 14065 43% 10 91277 7486 37%
c p  7.71 44 90 24 4329 105006 31509 43% 10 91277 7330 36%
c d  7.72 44 90 24 4329 105006 30803 43% 10 86607 7225 36%
c d  7.73 44 90 24 4329 105006 30800 43% 10 86588 7218 36%
c B  7.76 44 90 24 4329 105031 30817 28% 10 86588 7218 36%
c -  7.87 44 88 25 4458 108048 10857 37% 10 86588 7218 36%
c i  7.90 44 87 25 4465 109028 11447 35% 10 86588 7217 36%
c s  7.98 44 89 25 4505 110795 12345 38% 10 85061 7217 36%
c v  8.01 44 89 25 4505 110795 12345 38% 10 84977 7217 36%
c w  8.03 44 89 25 4505 110795 12324 38% 10 84977 7217 36%
c t  8.05 44 89 25 4505 110795 12324 38% 10 84581 7217 36%
c e  8.14 44 89 25 4505 110795 11140 38% 10 77089 6038 30%
c s  8.17 44 89 25 4505 110795 11005 38% 10 75595 6038 30%
c e  8.21 44 89 25 4505 110795 10864 38% 10 74070 5902 29%
c -  8.38 44 89 26 4730 115849 8933 35% 10 74070 5902 29%
c 
c  seconds  reductions       redundant   irredundant
c         MB     restarts           trail      variables
c          level      conflicts         glue        remaining
c 
c W  8.58 44 88 26 4868 120032 12195 39% 10 74070 5902 29%
c i  8.70 44 84 26 4872 123395 14368 33% 10 74070 5691 28%
c i  8.71 44 84 26 4880 123799 14634 33% 10 74070 5690 28%
c -  8.73 44 84 27 4888 123951 4069 33% 10 69239 5690 28%
c i  8.76 44 84 27 4984 124842 4686 33% 10 69239 5687 28%
c i  8.76 44 84 27 4984 124878 4699 33% 10 69239 5686 28%
c i  8.76 44 84 27 5011 125059 4774 33% 10 69239 5684 28%
c i  8.79 44 84 27 5138 125957 5262 33% 10 69239 5683 28%
c i  8.80 44 84 27 5154 126042 5282 33% 10 69239 5679 28%
c }  8.82 44 84 27 5290 127006 5799 33% 10 69239 5679 28%
c [  8.82 44 75 27 5290 127006 5799 81% 19 69239 5679 28%
c -  9.01 44 79 28 5292 132351 8550 71% 18 69025 5679 28%
c B  9.15 44 77 28 5295 136034 11140 65% 18 69025 5679 28%
c d  9.29 44 76 28 5297 140007 13675 60% 18 68900 5583 28%
c 3  9.30 44 76 28 5297 140007 14745 60% 18 68900 5583 28%
c 2  9.31 44 76 28 5297 140007 14770 60% 18 67956 5583 28%
c p  9.44 44 76 28 5297 140007 23583 60% 18 67956 5467 27%
c d  9.44 44 76 28 5297 140007 22644 60% 18 66315 5413 27%
c d  9.45 44 76 28 5297 140007 22644 60% 18 66305 5411 27%
c -  9.50 44 75 29 5298 141058 9814 59% 18 66305 5411 27%
c 
c  seconds  reductions       redundant   irredundant
c         MB     restarts           trail      variables
c          level      conflicts         glue        remaining
c 
c -  9.82 44 68 30 5299 150059 11308 52% 17 66305 5411 27%
c W  9.97 44 66 30 5300 153035 13293 50% 17 66305 5411 27%
c s 10.05 44 65 30 5300 154593 13879 49% 17 65602 5411 27%
c v 10.08 44 65 30 5300 154593 13879 49% 17 65528 5411 27%
c w 10.09 44 65 30 5300 154593 13864 49% 17 65528 5411 27%
c t 10.11 44 65 30 5300 154593 13863 49% 17 63701 5411 27%
c e 10.19 44 65 30 5300 154593 12315 49% 17 48957 4264 21%
c s 10.21 44 65 30 5300 154593 12145 49% 17 48184 4264 21%
c e 10.25 44 65 30 5300 154593 11996 49% 17 46628 4114 20%
c - 10.43 28 62 31 5300 159361 10425 37% 17 46628 4114 20%
c - 10.77 30 55 32 5300 168963 10655 30% 16 46628 4114 20%
c I 10.84 30 55 32 5302 171037 12172 30% 16 46628 4114 20%
c - 11.08 30 54 33 5307 178864 10976 33% 16 46628 4114 20%
c d 11.13 30 53 33 5307 180007 11699 33% 17 46620 4106 20%
c 3 11.13 30 53 33 5307 180007 11785 33% 17 46620 4106 20%
c 2 11.14 30 53 33 5307 180007 11705 33% 17 46471 4106 20%
c p 11.20 30 53 33 5307 180007 15190 33% 17 46471 4091 20%
c d 11.20 30 53 33 5307 180007 15115 33% 17 46266 4056 20%
c d 11.21 30 53 33 5307 180007 15113 33% 17 46247 4053 20%
c - 11.51 31 50 34 5313 189065 11345 34% 16 46247 4053 20%
c 
c  seconds  reductions       redundant   irredundant
c         MB     restarts           trail      variables
c          level      conflicts         glue        remaining
c 
c B 11.54 31 50 34 5313 190038 11792 34% 16 46247 4053 20%
c - 11.87 31 47 35 5315 199566 11922 32% 16 46247 4053 20%
c s 12.02 31 46 35 5316 203630 13731 32% 16 45871 4053 20%
c v 12.04 31 46 35 5316 203630 13731 32% 16 45804 4053 20%
c w 12.05 31 46 35 5316 203630 13720 32% 16 45804 4053 20%
c t 12.08 31 46 35 5316 203630 13720 32% 16 43974 4053 20%
c e 12.11 31 46 35 5316 203630 13208 32% 16 42745 3923 20%
c s 12.13 31 46 35 5316 203630 12954 32% 16 42486 3923 20%
c e 12.16 31 46 35 5316 203630 12921 32% 16 42389 3891 19%
c W 12.41 31 45 35 5321 210039 16878 30% 15 42389 3891 19%
c - 12.43 31 45 36 5321 210366 11321 30% 15 42389 3891 19%
c - 12.79 31 44 37 5327 221468 12237 29% 15 42389 3891 19%
c d 12.91 31 43 37 5329 225008 14296 28% 15 42389 3890 19%
c 3 12.91 31 43 37 5329 225008 14358 28% 15 42389 3890 19%
c 2 12.92 31 43 37 5329 225008 14320 28% 15 42383 3890 19%
c p 12.95 31 43 37 5329 225008 16813 28% 15 42383 3890 19%
c O 13.14 31 41 37 5330 231040 20255 27% 14 42383 3890 19%
c i 13.17 31 40 37 5330 231886 20619 27% 14 42383 3827 19%
c i 13.17 31 41 37 5330 232070 20765 27% 14 42383 3799 19%
c - 13.21 31 41 38 5330 232869 3115 27% 14 41038 3799 19%
c 
c  seconds  reductions      redundant   irredundant
c         MB     restarts          trail      variables
c          level      conflicts        glue        remaining
c 
c - 13.54 31 38 39 5331 244569 9562 26% 14 41038 3799 19%
c i 13.64 31 37 39 5331 248007 11634 25% 13 41038 3796 19%
c i 13.69 31 37 39 5331 249962 12756 25% 13 41038 3721 19%
c i 13.71 31 37 39 5331 250520 13012 25% 13 41038 3680 18%
c i 13.72 31 37 39 5331 250530 4028  6% 13 38526 3591 18%
c i 13.72 31 37 39 5331 250532 4029  6% 13 38526 3518 18%
c i 13.72 31 37 39 5331 250534 4030  6% 13 38526 3461 17%
c ] 13.72 31 37 39 5331 250536 4030  6% 13 38526 3378 17%
c 0 13.72 31 37 39 5331 250536 4030  6% 13 38526 3378 17%
c 
c --- [ result ] -------------------------------------------------------------
c 
s UNSATISFIABLE
c 
c --- [ run-time profiling ] -------------------------------------------------
c 
c process time taken by individual solving procedures
c (percentage relative to process time for solving)
c 
c        10.13   74.53% search
c         6.22   45.76% stable
c         3.54   26.04% unstable
c         3.46   25.47% simplify
c         1.01    7.43% elim
c         0.95    6.98% probe
c         0.49    3.63% subsume
c         0.36    2.67% walk
c         0.28    2.05% vivify
c         0.23    1.70% ternary
c         0.13    0.96% parse
c         0.01    0.05% lucky
c   =================================
c        13.59   99.04% solve
c 
c last line shows process time for solving
c (percentage relative to total process time)
c 
c --- [ statistics ] ---------------------------------------------------------
c 
c chronological:            101279        40.42 %  of conflicts
c conflicts:                250536     18439.42    per second
c decisions:               1356071     99806.67    per second
c eliminated:                10295        51.24 %  of all variables
c fixed:                      4248        21.14 %  of all variables
c learned:                  241659        96.46 %  per conflict
c learned_lits:            8360946       100.00 %  learned literals
c minimized:                     0         0.00 %  learned literals
c shrunken:                2848515        34.07 %  learned literals
c minishrunken:             599317         7.17 %  learned literals
c otfs:                       8539         3.41 %  of conflict
c propagations:           56924251         4.19 M  per second
c reduced:                   93702        37.40 %  per conflict
c rephased:                     21     11930.29    interval
c restarts:                   5331        47.00    interval
c stabilizing:                   4        65.38 %  of conflicts
c substituted:                1227         6.11 %  of all variables
c subsumed:                 101327        14.88 %  of all clauses
c strengthened:              81042        11.90 %  of all clauses
c ternary:                   16621         4.02 %  of resolved
c trail reuses:                  0         0.00 %  of incremental calls
c vivified:                    646         0.09 %  of all clauses
c walked:                        6     41756.00    interval
c weakened:                  74845         3.41    average size
c 
c seconds are measured in process time for solving
c 
c --- [ resources ] ----------------------------------------------------------
c 
c total process time since initialization:        13.72    seconds
c total real time since initialization:           13.72    seconds
c maximum resident set size of process:           43.58    MB
c 
c --- [ shutting down ] ------------------------------------------------------
c 
c exit 20
